problems/VanDerWaerdenNumbers/VanDerWaerden-models/noch/O2/lingeling/model_4-k3l4n74-solution000001.solution
language Essence 1.3

letting p be
        partition({1, 5, 7, 10, 16, 17, 19, 22, 23, 24, 29, 32, 37, 38, 39, 42, 43, 51, 54, 57, 58, 59, 63, 66},
                  {2, 3, 8, 11, 15, 20, 26, 27, 28, 31, 33, 34, 35, 44, 46, 47, 49, 55, 56, 60, 61, 64, 70, 71},
                  {4, 6, 9, 12, 13, 14, 18, 21, 25, 30, 36, 40, 41, 45, 48, 50, 52, 53, 62, 65, 67, 68, 69, 72, 73, 74})
